/*********************************************
 * OPL 12.6.0.0 Data
 * Author: Adrian Rodriguez Bazaga, Pau Rodriguez Esmerats
 * Creation Date: 06/12/2017 at 23:04:57
 *********************************************/

nNurses=174;
maxConsec=2;
maxPresence=7;
maxHours=5;
minHours=1;
hours=24;
demand= [28 31 44 41 31 44 41 31 30 15 1 2 3 6 3 6 3 4 2 4 26 48 22 40  ];
